data/CVRPLIB/Vrp-Set-XML100/instances/XML100_3112_05.vrp
NAME : XML100_3112_05
COMMENT : Generated by Queiroga, Sadykov, Uchoa, and Vidal (2021)
TYPE : CVRP
DIMENSION : 101
EDGE_WEIGHT_TYPE : EUC_2D
CAPACITY : 6
NODE_COORD_SECTION
1    0    0   
2    364  693 
3    891  314 
4    629  804 
5    813  605 
6    437  498 
7    734  296 
8    138  146 
9    17   111 
10   476  805 
11   583  480 
12   362  740 
13   674  434 
14   846  851 
15   229  716 
16   60   936 
17   273  662 
18   118  934 
19   650  544 
20   660  751 
21   196  929 
22   411  547 
23   819  447 
24   566  599 
25   491  222 
26   924  445 
27   320  589 
28   616  649 
29   687  745 
30   717  737 
31   80   267 
32   589  697 
33   39   979 
34   771  329 
35   781  670 
36   352  956 
37   435  112 
38   973  601 
39   764  823 
40   365  796 
41   733  102 
42   345  349 
43   46   848 
44   300  13  
45   467  465 
46   14   737 
47   479  407 
48   960  361 
49   546  528 
50   817  394 
51   773  563 
52   813  412 
53   445  504 
54   751  787 
55   14   169 
56   875  368 
57   939  519 
58   146  717 
59   382  597 
60   944  8   
61   327  120 
62   268  6   
63   579  638 
64   805  302 
65   998  279 
66   217  355 
67   438  398 
68   310  338 
69   431  819 
70   161  129 
71   471  211 
72   635  149 
73   987  369 
74   45   363 
75   679  516 
76   823  640 
77   88   759 
78   613  252 
79   408  84  
80   876  354 
81   732  548 
82   426  17  
83   233  899 
84   994  522 
85   348  128 
86   459  911 
87   266  733 
88   568  371 
89   478  78  
90   304  638 
91   198  844 
92   837  604 
93   693  455 
94   977  15  
95   504  30  
96   403  870 
97   269  696 
98   313  581 
99   535  23  
100  703  280 
101  380  544 
DEMAND_SECTION
1    0   
2    1   
3    1   
4    1   
5    1   
6    1   
7    1   
8    1   
9    1   
10   1   
11   1   
12   1   
13   1   
14   1   
15   1   
16   1   
17   1   
18   1   
19   1   
20   1   
21   1   
22   1   
23   1   
24   1   
25   1   
26   1   
27   1   
28   1   
29   1   
30   1   
31   1   
32   1   
33   1   
34   1   
35   1   
36   1   
37   1   
38   1   
39   1   
40   1   
41   1   
42   1   
43   1   
44   1   
45   1   
46   1   
47   1   
48   1   
49   1   
50   1   
51   1   
52   1   
53   1   
54   1   
55   1   
56   1   
57   1   
58   1   
59   1   
60   1   
61   1   
62   1   
63   1   
64   1   
65   1   
66   1   
67   1   
68   1   
69   1   
70   1   
71   1   
72   1   
73   1   
74   1   
75   1   
76   1   
77   1   
78   1   
79   1   
80   1   
81   1   
82   1   
83   1   
84   1   
85   1   
86   1   
87   1   
88   1   
89   1   
90   1   
91   1   
92   1   
93   1   
94   1   
95   1   
96   1   
97   1   
98   1   
99   1   
100  1   
101  1   
DEPOT_SECTION
1
-1
EOF
