data/CVRPLIB/Vrp-Set-XML100/solutions/XML100_3112_05.sol
Route #1: 80 50 4 91 75 34
Route #2: 45 42 15 32 17 76
Route #3: 3 38 13 53 29 28
Route #4: 87 12 92 74 18 10
Route #5: 57 14 86 96 16 89
Route #6: 1 11 39 68 9 58
Route #7: 51 25 83 37 56 22
Route #8: 61 43 84 60 69 7
Route #9: 71 6 99 77 24 70
Route #10: 41 5 52 44 46 66
Route #11: 48 27 19 31 62 23
Route #12: 33 49 55 79 2 63
Route #13: 78 36 88 98 94 81
Route #14: 47 72 64 93 59 40
Route #15: 8 54 73 30
Route #16: 95 85 35 82 20 90
Route #17: 67 21 100 26 97 65
Cost 30341
